7396 -1 4531 19401 8272
7254 -1 3679 15528 7944
7426 -1 5182 21451 8294
7432 -1 3970 18498 8244
7466 -1 4483 17704 7750
7364 -1 4343 17150 8272
7344 -1 5354 21455 8260
7412 -1 3998 16386 8076
7356 -1 4132 16513 8184
7332 -1 4503 18329 7904
